p cnf 26 66
a 18 14 0
e 1 2 3 4 5 6 7 8 9 10 11 12 13 15 16 17 19 20 21 22 23 24 25 26 0
3 -1 0
3 2 0
1 -2 -3 0
5 -3 0
5 -4 0
3 4 -5 0
-6 -7 -8 0
6 7 -8 0
-6 7 8 0
6 -7 8 0
9 -5 0
9 8 0
5 -8 -9 0
7 -2 -10 0
-7 2 -10 0
7 2 10 0
-7 -2 10 0
12 10 0
12 -11 0
-10 11 -12 0
13 9 0
13 12 0
-9 -12 -13 0
-10 -11 -14 0
10 11 -14 0
-10 11 14 0
10 -11 14 0
15 -14 0
15 7 0
14 -7 -15 0
16 3 0
16 -1 0
-3 1 -16 0
15 -16 -17 0
-15 16 -17 0
15 16 17 0
-15 -16 17 0
18 10 0
18 -1 0
-10 1 -18 0
21 -19 0
21 -20 0
19 20 -21 0
-22 -2 0
-22 20 0
2 -20 22 0
-23 -21 0
-23 22 0
21 -22 23 0
-18 23 -24 0
18 -23 -24 0
-18 -23 24 0
18 23 24 0
25 17 0
25 -24 0
-17 24 -25 0
26 -13 0
26 -25 0
13 25 -26 0
-14 -16 -2 -22 23 -12 0
1 -3 11 -24 0
22 16 11 21 -17 15 2 0
-3 8 1 0
14 18 -19 23 0
-3 2 11 -13 26 0
26 0
